; benchmark generated from python API
(set-info :status unknown)
(declare-fun DISJ_W_S2_R_E1 () Bool)
(declare-fun DISJ_W_S1_R_E1 () Bool)
(declare-fun W_S2_V2 () Bool)
(declare-fun W_S2_V3 () Bool)
(declare-fun W_S2_V1 () Bool)
(declare-fun W_S1_V2 () Bool)
(declare-fun W_S1_V1 () Bool)
(declare-fun R_S2_V3 () Bool)
(declare-fun R_E1_V1 () Bool)
(declare-fun W_S2_V6 () Bool)
(declare-fun W_S2_V4 () Bool)
(declare-fun W_S1_V6 () Bool)
(declare-fun W_S1_V5 () Bool)
(declare-fun W_S1_V3 () Bool)
(declare-fun R_S1_V1 () Bool)
(declare-fun R_S2_V6 () Bool)
(declare-fun R_S2_V4 () Bool)
(declare-fun R_S2_V5 () Bool)
(declare-fun R_S2_V2 () Bool)
(declare-fun R_S2_V1 () Bool)
(declare-fun R_E1_V6 () Bool)
(declare-fun R_E1_V4 () Bool)
(declare-fun R_E1_V5 () Bool)
(declare-fun R_E1_V2 () Bool)
(declare-fun R_E1_V3 () Bool)
(declare-fun DISJ_W_S2_R_S2 () Bool)
(declare-fun R_S1_V6 () Bool)
(declare-fun R_S1_V4 () Bool)
(declare-fun R_S1_V5 () Bool)
(declare-fun R_S1_V2 () Bool)
(declare-fun R_S1_V3 () Bool)
(declare-fun DISJ_W_S2_R_S1 () Bool)
(declare-fun DISJ_W_S1_W_S2 () Bool)
(declare-fun DISJ_W_S1_R_S2 () Bool)
(declare-fun DISJ_W_S1_R_S1 () Bool)
(declare-fun W_S2_V5 () Bool)
(declare-fun W_S1_V4 () Bool)
(assert
 (let (($x2210 (not R_S2_V3)))
 (let (($x2782 (not R_E1_V1)))
 (let (($x1601 (and $x2782 $x2210 (not W_S1_V1) (not W_S1_V2) (not W_S2_V1) (not W_S2_V3) (not W_S2_V2) DISJ_W_S1_R_E1 DISJ_W_S2_R_E1)))
 (let (($x2597 (not $x1601)))
 (let (($x3322 (forall ((V1_0 Int) )(forall ((V3_0 Int) )(forall ((V2_0 Int) )(forall ((V5_0 Int) )(forall ((V4_0 Int) )(forall ((V6_0 Int) )(forall ((MW_S1_V1 Bool) )(forall ((MW_S1_V3 Bool) )(forall ((MW_S1_V2 Bool) )(forall ((MW_S1_V5 Bool) )(forall ((MW_S1_V4 Bool) )(forall ((MW_S1_V6 Bool) )(forall ((MW_S2_V1 Bool) )(forall ((MW_S2_V3 Bool) )(forall ((MW_S2_V2 Bool) )(forall ((MW_S2_V5 Bool) )(forall ((MW_S2_V4 Bool) )(forall ((MW_S2_V6 Bool) )(forall ((S1_V1_!158 Int) )(forall ((S1_V1_!171 Int) )(forall ((S2_V5_!167 Int) )(forall ((S2_V5_!180 Int) )(forall ((S1_V3_!159 Int) )(forall ((S1_V3_!172 Int) )(forall ((S1_V2_!160 Int) )(forall ((S1_V2_!173 Int) )(forall ((E1_!157 Int) )(forall ((E1_!170 Int) )(forall ((E1_!183 Int) )(forall ((S2_V4_!168 Int) )(forall ((S2_V4_!181 Int) )(forall ((S2_V6_!169 Int) )(forall ((S2_V6_!182 Int) )(forall ((S1_V5_!161 Int) )(forall ((S1_V5_!174 Int) )(forall ((S2_V1_!164 Int) )(forall ((S2_V1_!177 Int) )(forall ((S1_V4_!162 Int) )(forall ((S1_V4_!175 Int) )(forall ((S2_V3_!165 Int) )(forall ((S2_V3_!178 Int) )(forall ((S2_V2_!166 Int) )(forall ((S2_V2_!179 Int) )(forall ((S1_V6_!163 Int) )(forall ((S1_V6_!176 Int) )(let ((?x1475 (ite MW_S1_V6 S1_V6_!176 V6_0)))
 (let ((?x487 (ite MW_S2_V6 S2_V6_!182 ?x1475)))
 (let ((?x2639 (ite MW_S1_V4 S1_V4_!175 V4_0)))
 (let ((?x6025 (ite MW_S2_V4 S2_V4_!181 ?x2639)))
 (let ((?x4766 (ite MW_S1_V5 S1_V5_!174 V5_0)))
 (let ((?x3312 (ite MW_S2_V5 S2_V5_!180 ?x4766)))
 (let ((?x5744 (ite MW_S1_V2 S1_V2_!173 V2_0)))
 (let ((?x6016 (ite MW_S2_V2 S2_V2_!179 ?x5744)))
 (let ((?x3845 (ite MW_S1_V2 S1_V2_!160 V2_0)))
 (let ((?x275 (ite MW_S2_V2 S2_V2_!166 ?x3845)))
 (let (($x5189 (= (ite MW_S2_V3 S2_V3_!165 (+ 1 (ite MW_S1_V3 S1_V3_!159 V3_0))) (+ (ite MW_S2_V3 S2_V3_!178 (ite MW_S1_V3 S1_V3_!172 V3_0)) ?x6016 (* (- 1) E1_!183)))))
 (let ((?x2801 (ite MW_S1_V1 S1_V1_!171 E1_!170)))
 (let ((?x2607 (ite MW_S2_V1 S2_V1_!177 ?x2801)))
 (let ((?x1975 (ite MW_S1_V1 S1_V1_!158 E1_!157)))
 (let ((?x1270 (ite MW_S2_V1 S2_V1_!164 ?x1975)))
 (let (($x4051 (and (= ?x1270 ?x2607) $x5189 (= ?x275 ?x6016) (= (ite MW_S2_V5 S2_V5_!167 (ite MW_S1_V5 S1_V5_!161 V5_0)) ?x3312) (= (ite MW_S2_V4 S2_V4_!168 (ite MW_S1_V4 S1_V4_!162 V4_0)) ?x6025) (= (ite MW_S2_V6 S2_V6_!169 (ite MW_S1_V6 S1_V6_!163 V6_0)) ?x487))))
 (let (($x1893 (and (not (<= V2_0 E1_!157)) (>= ?x1270 (+ (- 1) ?x275)) (not (<= V2_0 E1_!170)) (>= ?x2607 (+ (- 1) ?x6016)))))
 (let (($x2210 (not R_S2_V3)))
 (let (($x582 (and (or (not R_S2_V1) (= ?x2801 ?x1975)) (or $x2210 (= (ite MW_S1_V3 S1_V3_!172 V3_0) (+ 1 (ite MW_S1_V3 S1_V3_!159 V3_0)))) (or (not R_S2_V2) (= ?x5744 ?x3845)) (or (not R_S2_V5) (= ?x4766 (ite MW_S1_V5 S1_V5_!161 V5_0))) (or (not R_S2_V4) (= ?x2639 (ite MW_S1_V4 S1_V4_!162 V4_0))) (or (not R_S2_V6) (= ?x1475 (ite MW_S1_V6 S1_V6_!163 V6_0))))))
 (let (($x1357 (not $x582)))
 (let (($x3730 (or $x2210 (= (ite MW_S1_V3 S1_V3_!159 V3_0) (+ (- 1) (ite MW_S1_V3 S1_V3_!172 V3_0))))))
 (let (($x3367 (and (or (not R_S2_V1) (= ?x1975 ?x2801)) $x3730 (or (not R_S2_V2) (= ?x3845 ?x5744)) (or (not R_S2_V5) (= (ite MW_S1_V5 S1_V5_!161 V5_0) ?x4766)) (or (not R_S2_V4) (= (ite MW_S1_V4 S1_V4_!162 V4_0) ?x2639)) (or (not R_S2_V6) (= (ite MW_S1_V6 S1_V6_!163 V6_0) ?x1475)))))
 (let (($x1273 (not $x3367)))
 (let (($x962 (and (or (not R_E1_V1) (= V1_0 (+ 1 ?x2607))) (or (not R_E1_V3) (= V3_0 (ite MW_S2_V3 S2_V3_!178 (ite MW_S1_V3 S1_V3_!172 V3_0)))) (or (not R_E1_V2) (= V2_0 ?x6016)) (or (not R_E1_V5) (= V5_0 ?x3312)) (or (not R_E1_V4) (= V4_0 ?x6025)) (or (not R_E1_V6) (= V6_0 ?x487)))))
 (let (($x248 (not $x962)))
 (let (($x2281 (= E1_!157 E1_!170)))
 (let (($x5707 (and (or (not (or (not R_S1_V1) $x2281)) (= S1_V1_!158 S1_V1_!171)) (or $x1357 (= S2_V5_!180 S2_V5_!167)) (or (not (or (not R_S1_V1) $x2281)) (= S1_V3_!159 S1_V3_!172)) (or (not (or (not R_S1_V1) (= E1_!170 E1_!157))) (= S1_V2_!173 S1_V2_!160)) $x2281 (or $x248 (= E1_!157 E1_!183)) (or $x248 (= E1_!170 E1_!183)) (or $x1273 (= S2_V4_!168 S2_V4_!181)) (or $x1357 (= S2_V6_!182 S2_V6_!169)) (or (not (or (not R_S1_V1) (= E1_!170 E1_!157))) (= S1_V5_!174 S1_V5_!161)) (or $x1357 (= S2_V1_!177 S2_V1_!164)) (or (not (or (not R_S1_V1) (= E1_!170 E1_!157))) (= S1_V4_!175 S1_V4_!162)) (or $x1273 (= S2_V3_!165 S2_V3_!178)) (or $x1357 (= S2_V2_!179 S2_V2_!166)) (or (not (or (not R_S1_V1) (= E1_!170 E1_!157))) (= S1_V6_!176 S1_V6_!163)) (or (not MW_S1_V1) W_S1_V1) (or (not MW_S1_V3) W_S1_V3) (or (not MW_S1_V2) W_S1_V2) (or (not MW_S1_V5) W_S1_V5) (or (not MW_S1_V6) W_S1_V6) (or (not MW_S2_V1) W_S2_V1) (or (not MW_S2_V3) W_S2_V3) (or (not MW_S2_V2) W_S2_V2) (or (not MW_S2_V4) W_S2_V4) (or (not MW_S2_V6) W_S2_V6))))
 (or (not $x5707) (not $x1893) $x4051)))))))))))))))))))))))))))))
 )
 )
 )
 )
 )
 )
 )
 )
 )
 )
 )
 )
 )
 )
 )
 )
 )
 )
 )
 )
 )
 )
 )
 )
 )
 )
 )
 )
 )
 )
 )
 )
 )
 )
 )
 )
 )
 )
 )
 )
 )
 )
 )
 )
 ))
 (let (($x5795 (and W_S2_V6 R_E1_V6)))
 (let (($x512 (and W_S2_V4 R_E1_V4)))
 (let (($x2790 (and W_S2_V2 R_E1_V2)))
 (let (($x2389 (and W_S2_V3 R_E1_V3)))
 (let (($x2363 (and W_S2_V1 R_E1_V1)))
 (let (($x5221 (= DISJ_W_S2_R_E1 (not (or $x2363 $x2389 $x2790 R_E1_V5 $x512 $x5795)))))
 (let (($x2352 (or (and W_S2_V1 R_S2_V1) (and W_S2_V3 R_S2_V3) (and W_S2_V2 R_S2_V2) R_S2_V5 (and W_S2_V4 R_S2_V4) (and W_S2_V6 R_S2_V6))))
 (let (($x4165 (= DISJ_W_S2_R_S2 (not $x2352))))
 (let (($x892 (and W_S2_V6 R_S1_V6)))
 (let (($x4572 (and W_S2_V4 R_S1_V4)))
 (let (($x2230 (and W_S2_V2 R_S1_V2)))
 (let (($x2145 (and W_S2_V3 R_S1_V3)))
 (let (($x4375 (and W_S2_V1 R_S1_V1)))
 (let (($x486 (= DISJ_W_S2_R_S1 (not (or $x4375 $x2145 $x2230 R_S1_V5 $x4572 $x892)))))
 (let (($x1907 (and W_S1_V6 W_S2_V6)))
 (let (($x5128 (and W_S1_V2 W_S2_V2)))
 (let (($x2754 (and W_S1_V3 W_S2_V3)))
 (let (($x3757 (and W_S1_V1 W_S2_V1)))
 (let (($x5903 (= DISJ_W_S1_W_S2 (not (or $x3757 $x2754 $x5128 W_S1_V5 W_S2_V4 $x1907)))))
 (let (($x1649 (and W_S1_V6 R_E1_V6)))
 (let (($x4823 (and W_S1_V5 R_E1_V5)))
 (let (($x5210 (and W_S1_V2 R_E1_V2)))
 (let (($x1298 (and W_S1_V3 R_E1_V3)))
 (let (($x5743 (and W_S1_V1 R_E1_V1)))
 (let (($x4289 (= DISJ_W_S1_R_E1 (not (or $x5743 $x1298 $x5210 $x4823 R_E1_V4 $x1649)))))
 (let (($x181 (and W_S1_V6 R_S2_V6)))
 (let (($x5927 (and W_S1_V5 R_S2_V5)))
 (let (($x2649 (and W_S1_V2 R_S2_V2)))
 (let (($x6023 (and W_S1_V3 R_S2_V3)))
 (let (($x3753 (and W_S1_V1 R_S2_V1)))
 (let (($x6073 (= DISJ_W_S1_R_S2 (not (or $x3753 $x6023 $x2649 $x5927 R_S2_V4 $x181)))))
 (let (($x565 (and W_S1_V6 R_S1_V6)))
 (let (($x1700 (and W_S1_V5 R_S1_V5)))
 (let (($x2422 (and W_S1_V2 R_S1_V2)))
 (let (($x3081 (and W_S1_V3 R_S1_V3)))
 (let (($x879 (and W_S1_V1 R_S1_V1)))
 (let (($x4986 (= DISJ_W_S1_R_S1 (not (or $x879 $x3081 $x2422 $x1700 R_S1_V4 $x565)))))
 (and (and W_S1_V4 W_S2_V5 $x4986 $x6073 $x4289 $x5903 $x486 $x4165 $x5221 $x3322) $x2597))))))))))))))))))))))))))))))))))))))))))))
(check-sat)
